p cnf 466 1231
c uncontrollable inputs:
a 1 0
c state variables:
a 3 4 5 6 7 8 9 10 11 12 13 14 15 16 17 18 19 20 21 22 23 24 25 26 27 28 0
c next state variables:
a 29 30 31 32 33 34 35 36 37 38 39 40 41 42 43 44 45 46 47 48 49 50 51 52 53 54 0
c controllable inputs
d 2 1 3 4 5 6 7 8 9 10 11 12 13 14 15 16 17 18 19 20 21 22 23 24 25 26 27 28 0
c winning region (state)
d 55 3 4 5 6 7 8 9 10 11 12 13 14 15 16 17 18 19 20 21 22 23 24 25 26 27 28 0
c winning region (next state)
d 56 29 30 31 32 33 34 35 36 37 38 39 40 41 42 43 44 45 46 47 48 49 50 51 52 53 54 0
c tseitin variables
e 57 58 59 60 61 62 63 64 65 66 67 68 69 70 71 72 73 74 75 76 77 78 79 80 81 82 83 84 85 86 87 88 89 90 91 92 93 94 95 96 97 98 99 100 101 102 103 104 105 106 107 108 109 110 111 112 113 114 115 116 117 118 119 120 121 122 123 124 125 126 127 128 129 130 131 132 133 134 135 136 137 138 139 140 141 142 143 144 145 146 147 148 149 150 151 152 153 154 155 156 157 158 159 160 161 162 163 164 165 166 167 168 169 170 171 172 173 174 175 176 177 178 179 180 181 182 183 184 185 186 187 188 189 190 191 192 193 194 195 196 197 198 199 200 201 202 203 204 205 206 207 208 209 210 211 212 213 214 215 216 217 218 219 220 221 222 223 224 225 226 227 228 229 230 231 232 233 234 235 236 237 238 239 240 241 242 243 244 245 246 247 248 249 250 251 252 253 254 255 256 257 258 259 260 261 262 263 264 265 266 267 268 269 270 271 272 273 274 275 276 277 278 279 280 281 282 283 284 285 286 287 288 289 290 291 292 293 294 295 296 297 298 299 300 301 302 303 304 305 306 307 308 309 310 311 312 313 314 315 316 317 318 319 320 321 322 323 324 325 326 327 328 329 330 331 332 333 334 335 336 337 338 339 340 341 342 343 344 345 346 347 348 349 350 351 352 353 354 355 356 357 358 359 360 361 362 363 364 365 366 367 368 369 370 371 372 373 374 375 376 377 378 379 380 381 382 383 384 385 386 387 388 389 390 391 392 393 394 395 396 397 398 399 400 401 402 403 404 405 406 407 408 409 410 411 412 413 414 415 416 417 418 419 420 421 422 423 424 425 426 427 428 429 430 431 432 433 434 435 436 437 438 439 440 441 442 443 444 445 446 447 448 449 450 451 452 453 454 455 456 457 458 459 460 461 462 463 464 465 466 0
c clauses:
-57 -29 0
-57 3 0
57 29 -3 0
-58 29 0
-58 -3 0
58 -29 3 0
-59 -57 0
-59 -58 0
59 57 58 0
-60 -30 0
-60 4 0
60 30 -4 0
-61 30 0
-61 -4 0
61 -30 4 0
-62 -60 0
-62 -61 0
62 60 61 0
-63 59 0
-63 62 0
63 -59 -62 0
-64 -31 0
-64 5 0
64 31 -5 0
-65 31 0
-65 -5 0
65 -31 5 0
-66 -64 0
-66 -65 0
66 64 65 0
-67 -32 0
-67 6 0
67 32 -6 0
-68 32 0
-68 -6 0
68 -32 6 0
-69 -67 0
-69 -68 0
69 67 68 0
-70 66 0
-70 69 0
70 -66 -69 0
-71 63 0
-71 70 0
71 -63 -70 0
-72 -33 0
-72 7 0
72 33 -7 0
-73 33 0
-73 -7 0
73 -33 7 0
-74 -72 0
-74 -73 0
74 72 73 0
-75 -34 0
-75 8 0
75 34 -8 0
-76 34 0
-76 -8 0
76 -34 8 0
-77 -75 0
-77 -76 0
77 75 76 0
-78 74 0
-78 77 0
78 -74 -77 0
-79 -35 0
-79 9 0
79 35 -9 0
-80 35 0
-80 -9 0
80 -35 9 0
-81 -79 0
-81 -80 0
81 79 80 0
-82 -36 0
-82 10 0
82 36 -10 0
-83 36 0
-83 -10 0
83 -36 10 0
-84 -82 0
-84 -83 0
84 82 83 0
-85 81 0
-85 84 0
85 -81 -84 0
-86 78 0
-86 85 0
86 -78 -85 0
-87 71 0
-87 86 0
87 -71 -86 0
-88 -37 0
-88 11 0
88 37 -11 0
-89 37 0
-89 -11 0
89 -37 11 0
-90 -88 0
-90 -89 0
90 88 89 0
-91 -38 0
-91 12 0
91 38 -12 0
-92 38 0
-92 -12 0
92 -38 12 0
-93 -91 0
-93 -92 0
93 91 92 0
-94 90 0
-94 93 0
94 -90 -93 0
-95 -39 0
-95 13 0
95 39 -13 0
-96 39 0
-96 -13 0
96 -39 13 0
-97 -95 0
-97 -96 0
97 95 96 0
-98 -40 0
-98 14 0
98 40 -14 0
-99 40 0
-99 -14 0
99 -40 14 0
-100 -98 0
-100 -99 0
100 98 99 0
-101 97 0
-101 100 0
101 -97 -100 0
-102 94 0
-102 101 0
102 -94 -101 0
-103 -41 0
-103 15 0
103 41 -15 0
-104 41 0
-104 -15 0
104 -41 15 0
-105 -103 0
-105 -104 0
105 103 104 0
-106 -42 0
-106 16 0
106 42 -16 0
-107 42 0
-107 -16 0
107 -42 16 0
-108 -106 0
-108 -107 0
108 106 107 0
-109 105 0
-109 108 0
109 -105 -108 0
-110 -43 0
-110 17 0
110 43 -17 0
-111 43 0
-111 -17 0
111 -43 17 0
-112 -110 0
-112 -111 0
112 110 111 0
-113 -44 0
-113 18 0
113 44 -18 0
-114 44 0
-114 -18 0
114 -44 18 0
-115 -113 0
-115 -114 0
115 113 114 0
-116 112 0
-116 115 0
116 -112 -115 0
-117 109 0
-117 116 0
117 -109 -116 0
-118 102 0
-118 117 0
118 -102 -117 0
-119 87 0
-119 118 0
119 -87 -118 0
-120 -53 0
-120 27 0
120 53 -27 0
-121 53 0
-121 -27 0
121 -53 27 0
-122 -120 0
-122 -121 0
122 120 121 0
-123 -54 0
-123 28 0
123 54 -28 0
-124 54 0
-124 -28 0
124 -54 28 0
-125 -123 0
-125 -124 0
125 123 124 0
-126 122 0
-126 125 0
126 -122 -125 0
-127 -45 0
-127 19 0
127 45 -19 0
-128 45 0
-128 -19 0
128 -45 19 0
-129 -127 0
-129 -128 0
129 127 128 0
-130 -46 0
-130 20 0
130 46 -20 0
-131 46 0
-131 -20 0
131 -46 20 0
-132 -130 0
-132 -131 0
132 130 131 0
-133 129 0
-133 132 0
133 -129 -132 0
-134 -47 0
-134 21 0
134 47 -21 0
-135 47 0
-135 -21 0
135 -47 21 0
-136 -134 0
-136 -135 0
136 134 135 0
-137 -48 0
-137 22 0
137 48 -22 0
-138 48 0
-138 -22 0
138 -48 22 0
-139 -137 0
-139 -138 0
139 137 138 0
-140 136 0
-140 139 0
140 -136 -139 0
-141 133 0
-141 140 0
141 -133 -140 0
-142 -49 0
-142 23 0
142 49 -23 0
-143 49 0
-143 -23 0
143 -49 23 0
-144 -142 0
-144 -143 0
144 142 143 0
-145 -50 0
-145 24 0
145 50 -24 0
-146 50 0
-146 -24 0
146 -50 24 0
-147 -145 0
-147 -146 0
147 145 146 0
-148 144 0
-148 147 0
148 -144 -147 0
-149 -51 0
-149 25 0
149 51 -25 0
-150 51 0
-150 -25 0
150 -51 25 0
-151 -149 0
-151 -150 0
151 149 150 0
-152 -52 0
-152 26 0
152 52 -26 0
-153 52 0
-153 -26 0
153 -52 26 0
-154 -152 0
-154 -153 0
154 152 153 0
-155 151 0
-155 154 0
155 -151 -154 0
-156 148 0
-156 155 0
156 -148 -155 0
-157 141 0
-157 156 0
157 -141 -156 0
-158 126 0
-158 157 0
158 -126 -157 0
-159 119 0
-159 158 0
159 -119 -158 0
-160 56 0
-160 -55 0
160 -56 55 0
-161 -56 0
-161 55 0
161 56 -55 0
-162 -160 0
-162 -161 0
162 160 161 0
-163 159 0
-163 -162 0
163 -159 162 0
-164 4 0
-164 3 0
164 -4 -3 0
-165 -1 0
-165 -164 0
165 1 164 0
-166 1 0
-166 164 0
166 -1 -164 0
-167 -165 0
-167 -166 0
167 165 166 0
-168 -30 0
-168 -167 0
168 30 167 0
-169 30 0
-169 167 0
169 -30 -167 0
-170 -168 0
-170 -169 0
170 168 169 0
-171 29 0
-171 170 0
171 -29 -170 0
-172 -5 0
-172 164 0
172 5 -164 0
-173 -1 0
-173 172 0
173 1 -172 0
-174 5 0
-174 3 0
174 -5 -3 0
-175 4 0
-175 -1 0
175 -4 1 0
-176 174 0
-176 -175 0
176 -174 175 0
-177 -173 0
-177 -176 0
177 173 176 0
-178 -31 0
-178 -177 0
178 31 177 0
-179 31 0
-179 177 0
179 -31 -177 0
-180 -178 0
-180 -179 0
180 178 179 0
-181 4 0
-181 174 0
181 -4 -174 0
-182 6 0
-182 3 0
182 -6 -3 0
-183 181 0
-183 182 0
183 -181 -182 0
-184 -181 0
-184 -182 0
184 181 182 0
185 -183 0
185 -184 0
-185 183 184 0
-186 -1 0
-186 -185 0
186 1 185 0
-187 1 0
-187 182 0
187 -1 -182 0
-188 -186 0
-188 -187 0
188 186 187 0
-189 -32 0
-189 -188 0
189 32 188 0
-190 32 0
-190 188 0
190 -32 -188 0
-191 -189 0
-191 -190 0
191 189 190 0
-192 180 0
-192 191 0
192 -180 -191 0
-193 171 0
-193 192 0
193 -171 -192 0
-194 7 0
-194 3 0
194 -7 -3 0
-195 183 0
-195 194 0
195 -183 -194 0
-196 -183 0
-196 -194 0
196 183 194 0
197 -195 0
197 -196 0
-197 195 196 0
-198 -1 0
-198 -197 0
198 1 197 0
-199 1 0
-199 194 0
199 -1 -194 0
-200 -198 0
-200 -199 0
200 198 199 0
-201 -33 0
-201 -200 0
201 33 200 0
-202 33 0
-202 200 0
202 -33 -200 0
-203 -201 0
-203 -202 0
203 201 202 0
-204 8 0
-204 3 0
204 -8 -3 0
-205 195 0
-205 204 0
205 -195 -204 0
-206 -195 0
-206 -204 0
206 195 204 0
207 -205 0
207 -206 0
-207 205 206 0
-208 -1 0
-208 -207 0
208 1 207 0
-209 1 0
-209 204 0
209 -1 -204 0
-210 -208 0
-210 -209 0
210 208 209 0
-211 -34 0
-211 -210 0
211 34 210 0
-212 34 0
-212 210 0
212 -34 -210 0
-213 -211 0
-213 -212 0
213 211 212 0
-214 203 0
-214 213 0
214 -203 -213 0
-215 9 0
-215 3 0
215 -9 -3 0
-216 205 0
-216 215 0
216 -205 -215 0
-217 -205 0
-217 -215 0
217 205 215 0
218 -216 0
218 -217 0
-218 216 217 0
-219 -1 0
-219 -218 0
219 1 218 0
-220 1 0
-220 215 0
220 -1 -215 0
-221 -219 0
-221 -220 0
221 219 220 0
-222 -35 0
-222 -221 0
222 35 221 0
-223 35 0
-223 221 0
223 -35 -221 0
-224 -222 0
-224 -223 0
224 222 223 0
-225 10 0
-225 3 0
225 -10 -3 0
-226 216 0
-226 225 0
226 -216 -225 0
-227 -216 0
-227 -225 0
227 216 225 0
228 -226 0
228 -227 0
-228 226 227 0
-229 -1 0
-229 -228 0
229 1 228 0
-230 1 0
-230 225 0
230 -1 -225 0
-231 -229 0
-231 -230 0
231 229 230 0
-232 -36 0
-232 -231 0
232 36 231 0
-233 36 0
-233 231 0
233 -36 -231 0
-234 -232 0
-234 -233 0
234 232 233 0
-235 224 0
-235 234 0
235 -224 -234 0
-236 214 0
-236 235 0
236 -214 -235 0
-237 193 0
-237 236 0
237 -193 -236 0
-238 11 0
-238 3 0
238 -11 -3 0
-239 226 0
-239 238 0
239 -226 -238 0
-240 -226 0
-240 -238 0
240 226 238 0
241 -239 0
241 -240 0
-241 239 240 0
-242 -1 0
-242 -241 0
242 1 241 0
-243 1 0
-243 238 0
243 -1 -238 0
-244 -242 0
-244 -243 0
244 242 243 0
-245 -37 0
-245 -244 0
245 37 244 0
-246 37 0
-246 244 0
246 -37 -244 0
-247 -245 0
-247 -246 0
247 245 246 0
-248 12 0
-248 3 0
248 -12 -3 0
-249 239 0
-249 248 0
249 -239 -248 0
-250 -239 0
-250 -248 0
250 239 248 0
251 -249 0
251 -250 0
-251 249 250 0
-252 -1 0
-252 -251 0
252 1 251 0
-253 1 0
-253 248 0
253 -1 -248 0
-254 -252 0
-254 -253 0
254 252 253 0
-255 -38 0
-255 -254 0
255 38 254 0
-256 38 0
-256 254 0
256 -38 -254 0
-257 -255 0
-257 -256 0
257 255 256 0
-258 247 0
-258 257 0
258 -247 -257 0
-259 13 0
-259 3 0
259 -13 -3 0
-260 249 0
-260 259 0
260 -249 -259 0
-261 -249 0
-261 -259 0
261 249 259 0
262 -260 0
262 -261 0
-262 260 261 0
-263 -1 0
-263 -262 0
263 1 262 0
-264 1 0
-264 259 0
264 -1 -259 0
-265 -263 0
-265 -264 0
265 263 264 0
-266 -39 0
-266 -265 0
266 39 265 0
-267 39 0
-267 265 0
267 -39 -265 0
-268 -266 0
-268 -267 0
268 266 267 0
-269 14 0
-269 3 0
269 -14 -3 0
-270 260 0
-270 269 0
270 -260 -269 0
-271 -260 0
-271 -269 0
271 260 269 0
272 -270 0
272 -271 0
-272 270 271 0
-273 -1 0
-273 -272 0
273 1 272 0
-274 1 0
-274 269 0
274 -1 -269 0
-275 -273 0
-275 -274 0
275 273 274 0
-276 -40 0
-276 -275 0
276 40 275 0
-277 40 0
-277 275 0
277 -40 -275 0
-278 -276 0
-278 -277 0
278 276 277 0
-279 268 0
-279 278 0
279 -268 -278 0
-280 258 0
-280 279 0
280 -258 -279 0
-281 15 0
-281 3 0
281 -15 -3 0
-282 270 0
-282 281 0
282 -270 -281 0
-283 -270 0
-283 -281 0
283 270 281 0
284 -282 0
284 -283 0
-284 282 283 0
-285 -1 0
-285 -284 0
285 1 284 0
-286 1 0
-286 281 0
286 -1 -281 0
-287 -285 0
-287 -286 0
287 285 286 0
-288 -41 0
-288 -287 0
288 41 287 0
-289 41 0
-289 287 0
289 -41 -287 0
-290 -288 0
-290 -289 0
290 288 289 0
-291 16 0
-291 3 0
291 -16 -3 0
-292 282 0
-292 291 0
292 -282 -291 0
-293 -282 0
-293 -291 0
293 282 291 0
294 -292 0
294 -293 0
-294 292 293 0
-295 -1 0
-295 -294 0
295 1 294 0
-296 1 0
-296 291 0
296 -1 -291 0
-297 -295 0
-297 -296 0
297 295 296 0
-298 -42 0
-298 -297 0
298 42 297 0
-299 42 0
-299 297 0
299 -42 -297 0
-300 -298 0
-300 -299 0
300 298 299 0
-301 290 0
-301 300 0
301 -290 -300 0
-302 17 0
-302 3 0
302 -17 -3 0
-303 292 0
-303 302 0
303 -292 -302 0
-304 -292 0
-304 -302 0
304 292 302 0
305 -303 0
305 -304 0
-305 303 304 0
-306 -1 0
-306 -305 0
306 1 305 0
-307 1 0
-307 302 0
307 -1 -302 0
-308 -306 0
-308 -307 0
308 306 307 0
-309 -43 0
-309 -308 0
309 43 308 0
-310 43 0
-310 308 0
310 -43 -308 0
-311 -309 0
-311 -310 0
311 309 310 0
-312 18 0
-312 3 0
312 -18 -3 0
-313 303 0
-313 312 0
313 -303 -312 0
-314 -303 0
-314 -312 0
314 303 312 0
315 -313 0
315 -314 0
-315 313 314 0
-316 -1 0
-316 -315 0
316 1 315 0
-317 1 0
-317 312 0
317 -1 -312 0
-318 -316 0
-318 -317 0
318 316 317 0
-319 -44 0
-319 -318 0
319 44 318 0
-320 44 0
-320 318 0
320 -44 -318 0
-321 -319 0
-321 -320 0
321 319 320 0
-322 311 0
-322 321 0
322 -311 -321 0
-323 301 0
-323 322 0
323 -301 -322 0
-324 280 0
-324 323 0
324 -280 -323 0
-325 237 0
-325 324 0
325 -237 -324 0
-326 19 0
-326 3 0
326 -19 -3 0
-327 313 0
-327 326 0
327 -313 -326 0
-328 20 0
-328 3 0
328 -20 -3 0
-329 327 0
-329 328 0
329 -327 -328 0
-330 21 0
-330 3 0
330 -21 -3 0
-331 329 0
-331 330 0
331 -329 -330 0
-332 22 0
-332 3 0
332 -22 -3 0
-333 331 0
-333 332 0
333 -331 -332 0
-334 23 0
-334 3 0
334 -23 -3 0
-335 333 0
-335 334 0
335 -333 -334 0
-336 24 0
-336 3 0
336 -24 -3 0
-337 335 0
-337 336 0
337 -335 -336 0
-338 25 0
-338 3 0
338 -25 -3 0
-339 337 0
-339 338 0
339 -337 -338 0
-340 26 0
-340 3 0
340 -26 -3 0
-341 339 0
-341 340 0
341 -339 -340 0
-342 27 0
-342 3 0
342 -27 -3 0
-343 341 0
-343 342 0
343 -341 -342 0
-344 -341 0
-344 -342 0
344 341 342 0
345 -343 0
345 -344 0
-345 343 344 0
-346 -1 0
-346 -345 0
346 1 345 0
-347 1 0
-347 342 0
347 -1 -342 0
-348 -346 0
-348 -347 0
348 346 347 0
-349 -53 0
-349 -348 0
349 53 348 0
-350 53 0
-350 348 0
350 -53 -348 0
-351 -349 0
-351 -350 0
351 349 350 0
-352 28 0
-352 3 0
352 -28 -3 0
-353 343 0
-353 352 0
353 -343 -352 0
-354 -1 0
-354 353 0
354 1 -353 0
-355 -2 0
-355 343 0
355 2 -343 0
-356 -1 0
-356 355 0
356 1 -355 0
-357 -352 0
-357 -356 0
357 352 356 0
358 -354 0
358 -357 0
-358 354 357 0
-359 -54 0
-359 -358 0
359 54 358 0
-360 54 0
-360 358 0
360 -54 -358 0
-361 -359 0
-361 -360 0
361 359 360 0
-362 351 0
-362 361 0
362 -351 -361 0
-363 -313 0
-363 -326 0
363 313 326 0
364 -327 0
364 -363 0
-364 327 363 0
-365 -1 0
-365 -364 0
365 1 364 0
-366 1 0
-366 326 0
366 -1 -326 0
-367 -365 0
-367 -366 0
367 365 366 0
-368 -45 0
-368 -367 0
368 45 367 0
-369 45 0
-369 367 0
369 -45 -367 0
-370 -368 0
-370 -369 0
370 368 369 0
-371 -327 0
-371 -328 0
371 327 328 0
372 -329 0
372 -371 0
-372 329 371 0
-373 -1 0
-373 -372 0
373 1 372 0
-374 1 0
-374 328 0
374 -1 -328 0
-375 -373 0
-375 -374 0
375 373 374 0
-376 -46 0
-376 -375 0
376 46 375 0
-377 46 0
-377 375 0
377 -46 -375 0
-378 -376 0
-378 -377 0
378 376 377 0
-379 370 0
-379 378 0
379 -370 -378 0
-380 -329 0
-380 -330 0
380 329 330 0
381 -331 0
381 -380 0
-381 331 380 0
-382 -1 0
-382 -381 0
382 1 381 0
-383 1 0
-383 330 0
383 -1 -330 0
-384 -382 0
-384 -383 0
384 382 383 0
-385 -47 0
-385 -384 0
385 47 384 0
-386 47 0
-386 384 0
386 -47 -384 0
-387 -385 0
-387 -386 0
387 385 386 0
-388 -331 0
-388 -332 0
388 331 332 0
389 -333 0
389 -388 0
-389 333 388 0
-390 -1 0
-390 -389 0
390 1 389 0
-391 1 0
-391 332 0
391 -1 -332 0
-392 -390 0
-392 -391 0
392 390 391 0
-393 -48 0
-393 -392 0
393 48 392 0
-394 48 0
-394 392 0
394 -48 -392 0
-395 -393 0
-395 -394 0
395 393 394 0
-396 387 0
-396 395 0
396 -387 -395 0
-397 379 0
-397 396 0
397 -379 -396 0
-398 -333 0
-398 -334 0
398 333 334 0
399 -335 0
399 -398 0
-399 335 398 0
-400 -1 0
-400 -399 0
400 1 399 0
-401 1 0
-401 334 0
401 -1 -334 0
-402 -400 0
-402 -401 0
402 400 401 0
-403 -49 0
-403 -402 0
403 49 402 0
-404 49 0
-404 402 0
404 -49 -402 0
-405 -403 0
-405 -404 0
405 403 404 0
-406 -335 0
-406 -336 0
406 335 336 0
407 -337 0
407 -406 0
-407 337 406 0
-408 -1 0
-408 -407 0
408 1 407 0
-409 1 0
-409 336 0
409 -1 -336 0
-410 -408 0
-410 -409 0
410 408 409 0
-411 -50 0
-411 -410 0
411 50 410 0
-412 50 0
-412 410 0
412 -50 -410 0
-413 -411 0
-413 -412 0
413 411 412 0
-414 405 0
-414 413 0
414 -405 -413 0
-415 -337 0
-415 -338 0
415 337 338 0
416 -339 0
416 -415 0
-416 339 415 0
-417 -1 0
-417 -416 0
417 1 416 0
-418 1 0
-418 338 0
418 -1 -338 0
-419 -417 0
-419 -418 0
419 417 418 0
-420 -51 0
-420 -419 0
420 51 419 0
-421 51 0
-421 419 0
421 -51 -419 0
-422 -420 0
-422 -421 0
422 420 421 0
-423 -339 0
-423 -340 0
423 339 340 0
424 -341 0
424 -423 0
-424 341 423 0
-425 -1 0
-425 -424 0
425 1 424 0
-426 1 0
-426 340 0
426 -1 -340 0
-427 -425 0
-427 -426 0
427 425 426 0
-428 -52 0
-428 -427 0
428 52 427 0
-429 52 0
-429 427 0
429 -52 -427 0
-430 -428 0
-430 -429 0
430 428 429 0
-431 422 0
-431 430 0
431 -422 -430 0
-432 414 0
-432 431 0
432 -414 -431 0
-433 397 0
-433 432 0
433 -397 -432 0
-434 362 0
-434 433 0
434 -362 -433 0
-435 325 0
-435 434 0
435 -325 -434 0
-436 435 0
-436 161 0
436 -435 -161 0
-437 55 0
-437 353 0
437 -55 -353 0
-438 -4 0
-438 -3 0
438 4 3 0
-439 -6 0
-439 -5 0
439 6 5 0
-440 438 0
-440 439 0
440 -438 -439 0
-441 -8 0
-441 -7 0
441 8 7 0
-442 -10 0
-442 -9 0
442 10 9 0
-443 441 0
-443 442 0
443 -441 -442 0
-444 440 0
-444 443 0
444 -440 -443 0
-445 -12 0
-445 -11 0
445 12 11 0
-446 -14 0
-446 -13 0
446 14 13 0
-447 445 0
-447 446 0
447 -445 -446 0
-448 -16 0
-448 -15 0
448 16 15 0
-449 -18 0
-449 -17 0
449 18 17 0
-450 448 0
-450 449 0
450 -448 -449 0
-451 447 0
-451 450 0
451 -447 -450 0
-452 444 0
-452 451 0
452 -444 -451 0
-453 -28 0
-453 -27 0
453 28 27 0
-454 -20 0
-454 -19 0
454 20 19 0
-455 -22 0
-455 -21 0
455 22 21 0
-456 454 0
-456 455 0
456 -454 -455 0
-457 -24 0
-457 -23 0
457 24 23 0
-458 -26 0
-458 -25 0
458 26 25 0
-459 457 0
-459 458 0
459 -457 -458 0
-460 456 0
-460 459 0
460 -456 -459 0
-461 453 0
-461 460 0
461 -453 -460 0
-462 452 0
-462 461 0
462 -452 -461 0
-463 -55 0
-463 462 0
463 55 -462 0
-464 -437 0
-464 -463 0
464 437 463 0
-465 -436 0
-465 464 0
465 436 -464 0
-466 -163 0
-466 465 0
466 163 -465 0
466 0
